4822 4186 1 3 4 5 6 7 8 10 12 13 14 17 20 21 23 25 26 31 33 37 39 42 45 46 49 51 52 57 59 60 62 64 67 68 70 71 73 77 78 79 81 82 84 86 90 93 107 109 117 119 120 121 124 126 127 131 136 142 145 146 147 149 150 152 154 156 160 161 163 164 170 174 176 178 179 182 183 188 191 192 194 195 202 203 205 213 220 224 225 227 234 238 244 246 247 249 251 257 258 259 263 265 272 273 277 278 286 287 289 292 295 300 301 302 306 309 311 313 316 318 319 320 322 323 328 331 337 344 345 346 347 350 352 353 355 364 368 369 381 388 390 391 392 394 396 398 399 404 406 412 414 416 417 418 420 421 424 436 438 441 445 449 450 451 453 457 458 461 462 464 468 470 471 472 474 476 485 487 490 492 493 497 499 500 